c Generated map
c Size: 8 * 8, weights in range: 1 to 10, walls: True, with ratio 0.1
c dim 7 of 9
c
p sp 64 92
c graph contains 64 nodes and 92 arcs
c
a 1 9 10
a 9 1 10
a 1 2 1
a 2 1 1
a 2 10 1
a 10 2 1
a 5 13 4
a 13 5 4
a 5 6 9
a 6 5 9
a 6 7 9
a 7 6 9
a 7 15 5
a 15 7 5
a 7 8 7
a 8 7 7
a 8 16 5
a 16 8 5
a 9 17 6
a 17 9 6
a 9 10 2
a 10 9 2
a 10 18 6
a 18 10 6
a 10 11 2
a 11 10 2
a 11 19 8
a 19 11 8
a 11 12 9
a 12 11 9
a 12 20 8
a 20 12 8
a 12 13 1
a 13 12 1
a 13 21 7
a 21 13 7
a 15 23 5
a 23 15 5
a 15 16 6
a 16 15 6
a 16 24 7
a 24 16 7
a 17 25 7
a 25 17 7
a 17 18 3
a 18 17 3
a 18 26 2
a 26 18 2
a 18 19 2
a 19 18 2
a 19 27 2
a 27 19 2
a 19 20 1
a 20 19 1
a 20 28 7
a 28 20 7
a 20 21 6
a 21 20 6
a 21 29 3
a 29 21 3
a 21 22 5
a 22 21 5
a 22 23 5
a 23 22 5
a 23 31 4
a 31 23 4
a 23 24 1
a 24 23 1
a 24 32 2
a 32 24 2
a 25 33 3
a 33 25 3
a 25 26 9
a 26 25 9
a 26 34 1
a 34 26 1
a 26 27 4
a 27 26 4
a 27 35 1
a 35 27 1
a 27 28 9
a 28 27 9
a 28 36 8
a 36 28 8
a 28 29 4
a 29 28 4
a 29 37 7
a 37 29 7
a 31 39 2
a 39 31 2
a 31 32 9
a 32 31 9
a 32 40 7
a 40 32 7
a 33 41 5
a 41 33 5
a 33 34 2
a 34 33 2
a 34 42 3
a 42 34 3
a 34 35 9
a 35 34 9
a 35 43 4
a 43 35 4
a 35 36 3
a 36 35 3
a 36 44 2
a 44 36 2
a 36 37 10
a 37 36 10
a 37 38 8
a 38 37 8
a 38 46 9
a 46 38 9
a 38 39 1
a 39 38 1
a 39 47 7
a 47 39 7
a 39 40 10
a 40 39 10
a 40 48 8
a 48 40 8
a 41 49 7
a 49 41 7
a 41 42 10
a 42 41 10
a 42 50 1
a 50 42 1
a 42 43 4
a 43 42 4
a 43 51 5
a 51 43 5
a 43 44 8
a 44 43 8
a 44 52 3
a 52 44 3
a 46 54 7
a 54 46 7
a 46 47 1
a 47 46 1
a 47 55 4
a 55 47 4
a 47 48 3
a 48 47 3
a 49 57 5
a 57 49 5
a 49 50 6
a 50 49 6
a 50 58 10
a 58 50 10
a 50 51 1
a 51 50 1
a 51 59 5
a 59 51 5
a 51 52 5
a 52 51 5
a 52 60 4
a 60 52 4
a 52 53 10
a 53 52 10
a 53 61 1
a 61 53 1
a 53 54 1
a 54 53 1
a 54 62 8
a 62 54 8
a 54 55 10
a 55 54 10
a 55 63 3
a 63 55 3
a 57 58 4
a 58 57 4
a 58 59 7
a 59 58 7
a 59 60 10
a 60 59 10
a 60 61 10
a 61 60 10
a 61 62 6
a 62 61 6
a 62 63 8
a 63 62 8
a 63 64 4
a 64 63 4
